 vasp.5.3.3 18Dez12 (build Feb 14 2014 20:08:11) complex

 executed on              matisse date 2019.09.26  03:47:52

 INCAR:
 POTCAR:    PAW_PBE B 06Sep2000
 POTCAR:    PAW_PBE N 08Apr2002
 POTCAR:    PAW_PBE B 06Sep2000
   VRHFIN =B: s2p1

   TITEL  = PAW_PBE B 06Sep2000
   POMASS =   10.811; ZVAL   =    3.000    mass and valenz
   ENMAX  =  318.614; ENMIN  =  238.960 eV

 POTCAR:    PAW_PBE N 08Apr2002
   VRHFIN =N: s2p3

   TITEL  = PAW_PBE N 08Apr2002
   POMASS =   14.001; ZVAL   =    5.000    mass and valenz
   ENMAX  =  400.000; ENMIN  =  300.000 eV

  PAW_PBE B 06Sep2000                   :
  PAW_PBE N 08Apr2002                   :

 POSCAR: B2 N2
  positions in direct lattice
  velocities in cartesian coordinates
 exchange correlation table for  LEXCH =        8
   RHO(1)=    0.500       N(1)  =     2000
   RHO(2)=  100.500       N(2)  =     4000

 ion  position               nearest neighbor table
   1  0.333  0.667  0.107-   2 1.45   2 1.45   2 1.45
   2  0.000  0.000  0.107-   1 1.45   1 1.45   1 1.45

  LATTYP: Found a hexagonal cell.
 ALAT       =     2.5130523278
 C/A-ratio  =     3.9792247417

  Lattice vectors:

 A1 = (   2.5130520078,   0.0000000000,   0.0000000000)
 A2 = (  -1.2565265042,   2.1763675382,   0.0000000000)
 A3 = (   0.0000000000,   0.0000000000,  10.0000000000)

Analysis of symmetry for initial positions (statically):
 Subroutine PRICEL returns:
 Original cell was already a primitive cell.

 Routine SETGRP: Setting up the symmetry group for a
 hexagonal supercell.

 Subroutine GETGRP returns: Found 12 space group operations
 (whereof  6 operations were pure point group operations)
 out of a pool of 24 trial point group operations.

The static configuration has the point symmetry C_3v.
 The point group associated with its full space group is D_3h.

Analysis of symmetry for dynamics (positions and initial velocities):
 Subroutine PRICEL returns:
 Original cell was already a primitive cell.

 Routine SETGRP: Setting up the symmetry group for a
 hexagonal supercell.

 Subroutine GETGRP returns: Found 12 space group operations
 (whereof  6 operations were pure point group operations)
 out of a pool of 24 trial point group operations.

The dynamic configuration has the point symmetry C_3v.
 The point group associated with its full space group is D_3h.

Analysis of magnetic symmetry:

 Subroutine MAGSYM returns: Found 12 space group operations
 (whereof  6 operations were pure point group operations)
 out of a pool of 12 trial space group operations
 (whereof  6 operations were pure point group operations)
 and found also     1 'primitive' translations

The magnetic configuration has the point symmetry C_3v.
 The point group associated with its full space group is D_3h.

 irot  :   1
 isymop:   1   0   0
           0   1   0
           0   0   1

 gtrans:     0.0000000     0.0000000     0.0000000

 ptrans:     0.0000000     0.0000000     0.0000000
 rotmap:
 (   1->   1)  (   2->   2)

[...]

 irot  :  12
 isymop:   1   0   0
           1  -1   0
           0   0  -1

 gtrans:     0.0000000     0.0000010     0.2133898

 ptrans:     0.0000000     0.0000000     0.0000000
 rotmap:
 (   1->   1)  (   2->   2)

 KPOINTS: automatic mesh

Automatic generation of k-mesh.
Space group operators:
 irot       det(A)        alpha          n_x          n_y          n_z        tau_x        tau_y        tau_z
    1     1.000000     0.000000     1.000000     0.000000     0.000000     0.000000     0.000000     0.000000
    2     1.000000   120.000000     0.000000     0.000000    -1.000000     0.000000     0.000000     0.000000
    3     1.000000   120.000000     0.000000     0.000000     1.000000     0.000000     0.000000     0.000000
    4    -1.000000   180.000000     1.000000     0.000000     0.000000     0.000000     0.000000     0.000000
    5    -1.000000   180.000000     0.500000    -0.866025     0.000000     0.000000     0.000000     0.000000
    6    -1.000000   180.000000    -0.500000    -0.866025     0.000000     0.000000     0.000000     0.000000
    7    -1.000000    60.000000     0.000000     0.000000    -1.000000     0.000000     0.000000     0.213390
    8    -1.000000   180.000000     0.000000     0.000000     1.000000     0.000000     0.000000     0.213390
    9    -1.000000    60.000000     0.000000     0.000000     1.000000     0.000000     0.000001     0.213390
   10     1.000000   180.000000     0.866026    -0.500000     0.000000     0.000000     0.000000     0.213390
   11     1.000000   180.000000     0.000000     1.000000     0.000000     0.000000     0.000000     0.213390
   12     1.000000   180.000000     0.866025     0.500000     0.000000     0.000000     0.000001     0.213390

 Subroutine IBZKPT returns following result:

 Found      3 irreducible k-points:

 Following reciprocal coordinates:
            Coordinates               Weight
  0.000000  0.000000  0.000000      1.000000
  0.333333  0.000000  0.000000      6.000000
  0.333333  0.333333  0.000000      2.000000

 Following cartesian coordinates:
            Coordinates               Weight
  0.000000  0.000000  0.000000      1.000000
  0.132641  0.076580  0.000000      6.000000
  0.132641  0.229741  0.000000      2.000000

 I would recommend the setting:
   dimension x,y,z NGX =    12 NGY =   12 NGZ =   46
 SYSTEM =  WSe2
 POSCAR =  B2 N2

 Startparameter for this run:
   NWRITE =      2    write-flag & timer
   PREC   = accura    normal or accurate (medium, high low for compatibility)
   ISTART =      1    job   : 0-new  1-cont  2-samecut
   ICHARG =      0    charge: 1-file 2-atom 10-const
   ISPIN  =      2    spin polarized calculation?
   LNONCOLLINEAR =      F non collinear calculations
   LSORBIT =      F    spin-orbit coupling
   INIWAV =      1    electr: 0-lowe 1-rand  2-diag
   LASPH  =      F    aspherical Exc in radial PAW
   METAGGA=      F    non-selfconsistent MetaGGA calc.

 Electronic Relaxation 1
   ENCUT  =  200.0 eV  14.70 Ry    3.83 a.u.   2.90  2.90 11.53*2*pi/ulx,y,z
   ENINI  =  200.0     initial cutoff
   ENAUG  =  627.1 eV  augmentation charge cutoff
   NELM   =    100;   NELMIN=  5; NELMDL=  0     # of ELM steps
   EDIFF  = 0.1E-07   stopping-criterion for ELM
   LREAL  =      F    real-space projection
   NLSPLINE    = F    spline interpolate recip. space projectors
   LCOMPAT=      F    compatible to vasp.4.4
   GGA_COMPAT  = T    GGA compatible to vasp.4.4-vasp.4.6
   LMAXPAW     = -100 max onsite density
   LMAXMIX     =    2 max onsite mixed and CHGCAR
   VOSKOWN=      0    Vosko Wilk Nusair interpolation
   ROPT   =    0.00000   0.00000
 Ionic relaxation
   EDIFFG = -.1E-04   stopping-criterion for IOM
   NSW    =    100    number of steps for IOM
   NBLOCK =      1;   KBLOCK =    100    inner block; outer block
   IBRION =      2    ionic relax: 0-MD 1-quasi-New 2-CG
   NFREE  =      1    steps in history (QN), initial steepest desc. (CG)
   ISIF   =      2    stress and relaxation
   IWAVPR =     11    prediction:  0-non 1-charg 2-wave 3-comb
   ISYM   =      1    0-nonsym 1-usesym 2-fastsym
   LCORR  =      T    Harris-Foulkes like correction to forces

   POTIM  = 0.5000    time-step for ionic-motion
   TEIN   =    0.0    initial temperature
   TEBEG  =    0.0;   TEEND  =   0.0 temperature during run
   SMASS  =  -3.00    Nose mass-parameter (am)
   estimated Nose-frequenzy (Omega)   =  0.10E-29 period in steps =****** mass=  -0.144E-27a.u.
   SCALEE = 1.0000    scale energy and forces
   NPACO  =    256;   APACO  = 16.0  distance and # of slots for P.C.
   PSTRESS=    0.0 pullay stress

  Mass of Ions in am
   POMASS =  10.81 14.00
  Ionic Valenz
   ZVAL   =   3.00  5.00
  Atomic Wigner-Seitz radii
  virtual crystal weights
   VCA    =   1.00  1.00
   NELECT =       8.0000    total number of electrons
   NUPDOWN=      -1.0000    fix difference up-down

 DOS related values:
   EMIN   =  10.00;   EMAX   =-10.00  energy-range for DOS
   EFERMI =   0.00
   ISMEAR =     1;   SIGMA  =   0.20  broadening in eV -4-tet -1-fermi 0-gaus

 Electronic relaxation 2 (details)
   IALGO  =     38    algorithm
   LDIAG  =      T    sub-space diagonalisation (order eigenvalues)
   LSUBROT=      T    optimize rotation matrix (better conditioning)
   TURBO    =      0    0=normal 1=particle mesh
   IRESTART =      0    0=no restart 2=restart with 2 vectors
   NREBOOT  =      0    no. of reboots
   NMIN     =      0    reboot dimension
   EREF     =   0.00    reference energy to select bands
   IMIX   =      4    mixing-type and parameters
     AMIX     =   0.40;   BMIX     =  1.00
     AMIX_MAG =   1.60;   BMIX_MAG =  1.00
     AMIN     =   0.10
     WC   =   100.;   INIMIX=   1;  MIXPRE=   1;  MAXMIX= -45

 Intra band minimization:
   WEIMIN = 0.0010     energy-eigenvalue tresh-hold
   EBREAK =  0.21E-09  absolut break condition
   DEPER  =   0.30     relativ break condition

   TIME   =   0.40     timestep for ELM

  volume/ion in A,a.u.               =      27.35       184.54
  Fermi-wavevector in a.u.,A,eV,Ry     =   0.862568  1.630018 10.123066  0.744024
  Thomas-Fermi vector in A             =   1.980390

 Write flags
   LWAVE  =      T    write WAVECAR
   LCHARG =      T    write CHGCAR
   LVTOT  =      F    write LOCPOT, total local potential
   LVHAR  =      F    write LOCPOT, Hartree potential only
   LELF   =      F    write electronic localiz. function (ELF)
   LORBIT =      0    0 simple, 1 ext, 2 COOP (PROOUT)

 Dipole corrections
   LMONO  =      F    monopole corrections only (constant potential shift)
   LDIPOL =      F    correct potential (dipole corrections)
   IDIPOL =      0    1-x, 2-y, 3-z, 4-all directions
   EPSILON=  1.0000000 bulk dielectric constant

 Exchange correlation treatment:
   GGA     =    --    GGA type
   VOSKOWN=      0    Vosko Wilk Nusair interpolation
   LHFCALC =     F    Hartree Fock is set to
   LHFONE  =     F    Hartree Fock one center treatment
   AEXX    =    0.0000 exact exchange contribution

 Linear response parameters
   LEPSILON=     F    determine dielectric tensor
   LRPA    =     F    only Hartree local field effects (RPA)
   LNABLA  =     F    use nabla operator in PAW spheres
   LVEL    =     F    velocity operator in full k-point grid
   LINTERFAST=   F  fast interpolation
   KINTER  =     0    interpolate to denser k-point grid
   CSHIFT  =0.1000    complex shift for real part using Kramers Kronig
   OMEGAMAX=  -1.0    maximum frequency
   DEG_THRESHOLD= 0.2000000E-02 threshold for treating states as degnerate
   RTIME   =    0.100 relaxation time in fs

 Orbital magnetization related:
   ORBITALMAG=     F  switch on orbital magnetization
   LCHIMAG   =     F  perturbation theory with respect to B field
   DQ        =  0.001000  dq finite difference perturbation B field

 conjugate gradient relaxation of ions
 charge density and potential will be updated during run
 spin polarized calculation
 Variant of blocked Davidson
 Davidson routine will perform the subspace rotation
 perform sub-space diagonalisation
    after iterative eigenvector-optimisation
 modified Broyden-mixing scheme, WC =      100.0
 initial mixing is a Kerker type mixing with AMIX =  0.4000 and BMIX =      1.0000
 Hartree-type preconditioning will be used
 using additional bands            8
 reciprocal scheme for non local part
 use partial core corrections
 calculate Harris-corrections to forces
   (improved forces if not selfconsistent)
 use gradient corrections
 use of overlap-Matrix (Vanderbilt PP)
 Methfessel and Paxton  Order N= 1 SIGMA  =   0.20

  energy-cutoff  :      200.00
  volume of cell :       54.69
      direct lattice vectors                 reciprocal lattice vectors
     2.513052008  0.000000000  0.000000000     0.397922525  0.229740699  0.000000000
    -1.256526504  2.176367538  0.000000000     0.000000000  0.459481215  0.000000000
     0.000000000  0.000000000 10.000000000     0.000000000  0.000000000  0.100000000

  length of vectors
     2.513052008  2.513052828 10.000000000     0.459481365  0.459481215  0.100000000

 old parameters found on file WAVECAR:
  energy-cutoff  :      200.00
  volume of cell :       54.69
      direct lattice vectors                 reciprocal lattice vectors
     2.513052008  0.000000000  0.000000000     0.397922525  0.229740699  0.000000000
    -1.256526504  2.176367538  0.000000000     0.000000000  0.459481215  0.000000000
     0.000000000  0.000000000 10.000000000     0.000000000  0.000000000  0.100000000

  length of vectors

 k-points in units of 2pi/SCALE and weight: automatic mesh
   0.00000000  0.00000000  0.00000000       0.111
   0.13264084  0.07658023  0.00000000       0.667
   0.13264084  0.22974064  0.00000000       0.222

 k-points in reciprocal lattice and weights: automatic mesh
   0.00000000  0.00000000  0.00000000       0.111
   0.33333333  0.00000000  0.00000000       0.667
   0.33333333  0.33333333  0.00000000       0.222

 position of ions in fractional coordinates (direct lattice)
   0.33333300  0.66666700  0.10669490
   0.00000000  0.00000000  0.10669490

 position of ions in cartesian coordinates  (Angst):
  -0.00000159  1.45091242  1.06694900
   0.00000000  0.00000000  1.06694900

 k-point  1 :   0.0000 0.0000 0.0000  plane waves:     329
 k-point  2 :   0.3333 0.0000 0.0000  plane waves:     357
 k-point  3 :   0.3333 0.3333 0.0000  plane waves:     351

 maximum and minimum number of plane-waves per node :        51       37

 maximum number of plane-waves:       357
 maximum index in each direction:
   IXMAX=    2   IYMAX=    2   IZMAX=   11
   IXMIN=   -3   IYMIN=   -3   IZMIN=  -11

 NGX is ok and might be reduce to  12
 NGY is ok and might be reduce to  12
 NGZ is ok and might be reduce to  46

 parallel 3D FFT for wavefunctions:
    minimum data exchange during FFTs selected (reduces bandwidth)
 parallel 3D FFT for charge:
    minimum data exchange during FFTs selected (reduces bandwidth)

 Broyden mixing: mesh for mixing (old mesh)
   NGX =  5   NGY =  5   NGZ = 23
  (NGX  = 24   NGY  = 24   NGZ  = 96)
  gives a total of    575 points

 charge density for first step will be calculated from the start-wavefunctions

 Maximum index for augmentation-charges          142 (set IRDMAX)

 initial charge from wavefunction
 First call to EWALD:  gamma=   0.467
 Maximum number of real-space cells 4x 4x 1
 Maximum number of reciprocal cells 2x 2x 6

 FEWALD executed in parallel

----------------------------------------- Iteration    1(   1)  ---------------------------------------

 eigenvalue-minimisations  :   128
 total energy-change (2. order) :-0.1682479E+02  (-0.3803427E-11)
 number of electron       7.9999985 magnetization       0.0000053
 augmentation part        0.1485265 magnetization       0.0000012

 Broyden mixing:
  rms(total) = 0.98288E-06    rms(broyden)= 0.95488E-06
  rms(prec ) = 0.97925E-06
  weight for this iteration     100.00

 Free energy of the ion-electron system (eV)
  alpha Z        PSCENC =         6.50623564
  Ewald energy   TEWEN  =       339.28568868
  -1/2 Hartree   DENC   =      -638.47804966
  -exchange  EXHF       =         0.00000000
  -V(xc)+E(xc)   XCENC  =        28.07709445
  PAW double counting   =      1281.44239836    -1281.96470949
  entropy T*S    EENTRO =         0.00257685
  eigenvalues    EBANDS =       -82.82977424
  atomic energy  EATOM  =       331.13374781
  free energy    TOTEN  =       -16.82479159 eV

  energy without entropy =      -16.82736844  energy(sigma->0) =      -16.82565054

[...]

 Broyden mixing:
  rms(total) = 0.74617E-06    rms(broyden)= 0.69532E-06
  rms(prec ) = 0.70068E-06
  weight for this iteration     100.00

 eigenvalues of (default mixing * dielectric matrix)
  average eigenvalue GAMMA=   1.9629
  1.9629

[...]

 eigenvalue-minimisations  :    84
 total energy-change (2. order) : 0.1352873E-09  (-0.5984348E-12)
 number of electron       7.9999985 magnetization       0.0000023
 augmentation part        0.1485265 magnetization       0.0000003

 Broyden mixing:
  rms(total) = 0.56987E-06    rms(broyden)= 0.49003E-06
  rms(prec ) = 0.49245E-06
  weight for this iteration     100.00
  WARNING: grid for Broyden might be to small

[...]

 eigenvalue-minimisations  :    84
 total energy-change (2. order) :-0.1524540E-09  (-0.2268309E-12)
 number of electron       7.9999985 magnetization       0.0000005
 augmentation part        0.1485265 magnetization      -0.0000005

 Broyden mixing:
  rms(total) = 0.38447E-06    rms(broyden)= 0.29078E-06
  rms(prec ) = 0.29380E-06
  weight for this iteration     100.00
  WARNING: grid for Broyden might be to small

 eigenvalues of (default mixing * dielectric matrix)
  average eigenvalue GAMMA=   2.0979
  3.9084  1.6529  0.7323

[...]

----------------------------------------- Iteration    1(   5)  ---------------------------------------

 eigenvalue-minimisations  :    84
 total energy-change (2. order) : 0.1450644E-09  (-0.1499541E-12)
 number of electron       7.9999985 magnetization       0.0000005
 augmentation part        0.1485265 magnetization      -0.0000005

 Free energy of the ion-electron system (eV)
  alpha Z        PSCENC =         6.50623564
  Ewald energy   TEWEN  =       339.28568868
  -1/2 Hartree   DENC   =      -638.47804906
  -exchange  EXHF       =         0.00000000
  -V(xc)+E(xc)   XCENC  =        28.07709428
  PAW double counting   =      1281.44235931    -1281.96467043
  entropy T*S    EENTRO =         0.00257685
  eigenvalues    EBANDS =       -82.82977466
  atomic energy  EATOM  =       331.13374781
  free energy    TOTEN  =       -16.82479159 eV

  energy without entropy =      -16.82736844  energy(sigma->0) =      -16.82565054

 average (electrostatic) potential at core
  the test charge radii are     0.7672  0.7089
  (the norm of the test charge is              1.0000)
       1 -34.8681       2 -72.8683

 E-fermi :  -2.8660     XC(G=0):  -4.3283     alpha+bet : -3.6179

 spin component 1

 k-point   1 :       0.0000    0.0000    0.0000
  band No.  band energies     occupation
      1     -21.4528      1.00000
      2      -8.3421      1.00000
      3      -3.9018      1.00000
      4      -3.9017      1.00000
      5       1.2986     -0.00000
      6       3.1228      0.00000
      7       3.7749      0.00000
      8       8.3288      0.00000
      9       8.5900      0.00000
     10       8.5900      0.00000
     11       8.5905      0.00000
     12      11.4602      0.00000

[...]

 spin component 2

[...]

 k-point   3 :       0.3333    0.3333    0.0000
  band No.  band energies     occupation
      1     -17.9946      1.00000
      2     -10.8408      1.00000
      3     -10.3203      1.00000
      4      -3.0344      1.00000
      5       1.5037     -0.00000
      6       9.1097      0.00000
      7      10.4502      0.00000
      8      11.4836      0.00000
      9      11.7960      0.00000
     10      13.2291      0.00000
     11      13.2614      0.00000
     12      13.7091      0.00000

 soft charge-density along one line, spin component           1
         0         1         2         3         4         5         6         7         8         9
 total charge-density along one line

 soft charge-density along one line, spin component           2
         0         1         2         3         4         5         6         7         8         9
 total charge-density along one line

------------------------ aborting loop because EDIFF is reached ----------------------------------------

  FORCE on cell =-STRESS in cart. coord.  units (eV):
  Direction    XX          YY          ZZ          XY          YZ          ZX
  Alpha Z     6.50624     6.50624     6.50624
  Ewald     610.77740   610.77707  -882.26880    -0.00023     0.00000     0.00000
  Hartree   611.90295   611.90296  -585.32786    -0.00000    -0.00000    -0.00000
  E(xc)     -31.27063   -31.27063   -32.22890    -0.00000     0.00000    -0.00000
  Local   -1320.44849 -1320.44834  1354.84864     0.00014     0.00000    -0.00000
  n-local   -16.15613   -16.61376   -16.17734     0.39634    -0.00000    -0.00000
  augment     1.12599     1.12600     1.21375     0.00001    -0.00000     0.00000
  Kinetic   124.84770   127.56607   141.70342    -2.35414     0.00000     0.00000
  Fock        0.00000     0.00000     0.00000     0.00000     0.00000     0.00000
  Total     -11.58468   -11.58469   -11.73087     0.00000     0.00000    -0.00000
  in kB    -339.36015  -339.36036  -343.64258     0.00008     0.00000    -0.00000

 VOLUME and BASIS-vectors are now :
  energy-cutoff  :      200.00
  volume of cell :       54.69
      direct lattice vectors                 reciprocal lattice vectors
     2.513052008  0.000000000  0.000000000     0.397922525  0.229740699  0.000000000
    -1.256526504  2.176367538  0.000000000     0.000000000  0.459481215  0.000000000
     0.000000000  0.000000000 10.000000000     0.000000000  0.000000000  0.100000000

  length of vectors
     2.513052008  2.513052828 10.000000000     0.459481365  0.459481215  0.100000000

 FORCES acting on ions
    electron-ion (+dipol)            ewald-force                    non-local-force                 convergence-correction
   -.269E-04 0.657E-04 -.357E-05   0.152E-03 -.174E-03 0.154E-18   0.278E-16 -.278E-16 0.000E+00   0.763E-10 -.439E-10 0.108E-11
   -.176E-04 -.171E-04 0.289E-05   -.152E-03 0.174E-03 -.154E-18   0.382E-16 0.000E+00 -.678E-20   -.855E-11 0.497E-11 0.296E-12
   -.445E-04 0.485E-04 -.679E-06   0.228E-14 -.101E-14 0.000E+00   0.659E-16 -.278E-16 -.678E-20   0.678E-10 -.389E-10 0.138E-11

 POSITION                                       TOTAL-FORCE (eV/Angst)
     -0.00000      1.45091      1.06695         0.000000      0.000000      0.000000
      0.00000      0.00000      1.06695        -0.000000     -0.000000     -0.000000
    total drift:                               -0.000044      0.000049     -0.000001

  FREE ENERGIE OF THE ION-ELECTRON SYSTEM (eV)
  free  energy   TOTEN  =       -16.82479159 eV

  energy  without entropy=      -16.82736844  energy(sigma->0) =      -16.82565054

 reached required accuracy - stopping structural energy minimisation
 writing wavefunctions