 vasp.5.3.3 18Dez12 (build Feb 14 2014 20:08:11) complex

 executed on              matisse date 2019.09.27  02:32:27

 INCAR:
 POTCAR:    PAW_PBE B 06Sep2000
 POTCAR:    PAW_PBE N 08Apr2002
 POTCAR:    PAW_PBE B 06Sep2000
   VRHFIN =B: s2p1

   TITEL  = PAW_PBE B 06Sep2000
   POMASS =   10.811; ZVAL   =    3.000    mass and valenz
   ENMAX  =  318.614; ENMIN  =  238.960 eV

 POTCAR:    PAW_PBE N 08Apr2002
   VRHFIN =N: s2p3

   TITEL  = PAW_PBE N 08Apr2002
   POMASS =   14.001; ZVAL   =    5.000    mass and valenz
   ENMAX  =  400.000; ENMIN  =  300.000 eV

  PAW_PBE B 06Sep2000                   :
  PAW_PBE N 08Apr2002                   :

 POSCAR: B2 N2
  positions in direct lattice
  velocities in cartesian coordinates
 exchange correlation table for  LEXCH =        8
   RHO(1)=    0.500       N(1)  =     2000
   RHO(2)=  100.500       N(2)  =     4000

 ion  position               nearest neighbor table
   1  0.333  0.667  0.107-   2 1.45   2 1.45   2 1.45
   2  0.000  0.000  0.107-   1 1.45   1 1.45   1 1.45

IMPORTANT INFORMATION: All symmetrisations will be switched off!
NOSYMM: (Re-)initialisation of all symmetry stuff for point group C_1.

 KPOINTS: automatic mesh

Automatic generation of k-mesh.
Space group operators:
 irot       det(A)        alpha          n_x          n_y          n_z        tau_x        tau_y        tau_z
    1     1.000000     0.000000     1.000000     0.000000     0.000000     0.000000     0.000000     0.000000

 Subroutine IBZKPT returns following result:

 Found      5 irreducible k-points:

 Following reciprocal coordinates:
            Coordinates               Weight
  0.000000  0.000000  0.000000      1.000000
  0.333333  0.000000  0.000000      2.000000
  0.000000  0.333333  0.000000      2.000000
  0.333333  0.333333  0.000000      2.000000
 -0.333333  0.333333  0.000000      2.000000

 Following cartesian coordinates:
            Coordinates               Weight
  0.000000  0.000000  0.000000      1.000000
  0.132641  0.076580  0.000000      2.000000
  0.000000  0.153160  0.000000      2.000000
  0.132641  0.229741  0.000000      2.000000
 -0.132641  0.076580  0.000000      2.000000

 I would recommend the setting:
   dimension x,y,z NGX =    12 NGY =   12 NGZ =   46
 SYSTEM =  WSe2
 POSCAR =  B2 N2

 Startparameter for this run:
   NWRITE =      2    write-flag & timer
   PREC   = accura    normal or accurate (medium, high low for compatibility)
   ISTART =      1    job   : 0-new  1-cont  2-samecut
   ICHARG =      0    charge: 1-file 2-atom 10-const
   ISPIN  =      2    spin polarized calculation?
   LNONCOLLINEAR =      F non collinear calculations
   LSORBIT =      F    spin-orbit coupling
   INIWAV =      1    electr: 0-lowe 1-rand  2-diag
   LASPH  =      F    aspherical Exc in radial PAW
   METAGGA=      F    non-selfconsistent MetaGGA calc.

 Electronic Relaxation 1
   ENCUT  =  200.0 eV  14.70 Ry    3.83 a.u.   2.90  2.90 11.53*2*pi/ulx,y,z
   ENINI  =  200.0     initial cutoff
   ENAUG  =  627.1 eV  augmentation charge cutoff
   NELM   =    100;   NELMIN=  5; NELMDL=  0     # of ELM steps
   EDIFF  = 0.1E-07   stopping-criterion for ELM
   LREAL  =      F    real-space projection
   NLSPLINE    = F    spline interpolate recip. space projectors
   LCOMPAT=      F    compatible to vasp.4.4
   GGA_COMPAT  = T    GGA compatible to vasp.4.4-vasp.4.6
   LMAXPAW     = -100 max onsite density
   LMAXMIX     =    2 max onsite mixed and CHGCAR
   VOSKOWN=      0    Vosko Wilk Nusair interpolation
   ROPT   =    0.00000   0.00000
 Ionic relaxation
   EDIFFG = -.1E-04   stopping-criterion for IOM
   NSW    =    100    number of steps for IOM
   NBLOCK =      1;   KBLOCK =    100    inner block; outer block
   IBRION =      2    ionic relax: 0-MD 1-quasi-New 2-CG
   NFREE  =      1    steps in history (QN), initial steepest desc. (CG)
   ISIF   =      2    stress and relaxation
   IWAVPR =     11    prediction:  0-non 1-charg 2-wave 3-comb
   ISYM   =      0    0-nonsym 1-usesym 2-fastsym
   LCORR  =      T    Harris-Foulkes like correction to forces

   POTIM  = 0.5000    time-step for ionic-motion
   TEIN   =    0.0    initial temperature
   TEBEG  =    0.0;   TEEND  =   0.0 temperature during run
   SMASS  =  -3.00    Nose mass-parameter (am)
   estimated Nose-frequenzy (Omega)   =  0.10E-29 period in steps =****** mass=  -0.144E-27a.u.
   SCALEE = 1.0000    scale energy and forces
   NPACO  =    256;   APACO  = 16.0  distance and # of slots for P.C.
   PSTRESS=    0.0 pullay stress

  Mass of Ions in am
   POMASS =  10.81 14.00
  Ionic Valenz
   ZVAL   =   3.00  5.00
  Atomic Wigner-Seitz radii
  virtual crystal weights
   VCA    =   1.00  1.00
   NELECT =       8.0000    total number of electrons
   NUPDOWN=      -1.0000    fix difference up-down

 DOS related values:
   EMIN   =  10.00;   EMAX   =-10.00  energy-range for DOS
   EFERMI =   0.00
   ISMEAR =     1;   SIGMA  =   0.20  broadening in eV -4-tet -1-fermi 0-gaus

 Electronic relaxation 2 (details)
   IALGO  =     38    algorithm
   LDIAG  =      T    sub-space diagonalisation (order eigenvalues)
   LSUBROT=      T    optimize rotation matrix (better conditioning)
   TURBO    =      0    0=normal 1=particle mesh
   IRESTART =      0    0=no restart 2=restart with 2 vectors
   NREBOOT  =      0    no. of reboots
   NMIN     =      0    reboot dimension
   EREF     =   0.00    reference energy to select bands
   IMIX   =      4    mixing-type and parameters
     AMIX     =   0.40;   BMIX     =  1.00
     AMIX_MAG =   1.60;   BMIX_MAG =  1.00
     AMIN     =   0.10
     WC   =   100.;   INIMIX=   1;  MIXPRE=   1;  MAXMIX= -45

 Intra band minimization:
   WEIMIN = 0.0010     energy-eigenvalue tresh-hold
   EBREAK =  0.21E-09  absolut break condition
   DEPER  =   0.30     relativ break condition

   TIME   =   0.40     timestep for ELM

  volume/ion in A,a.u.               =      27.35       184.54
  Fermi-wavevector in a.u.,A,eV,Ry     =   0.862568  1.630018 10.123066  0.744024
  Thomas-Fermi vector in A             =   1.980390

 Write flags
   LWAVE  =      T    write WAVECAR
   LCHARG =      T    write CHGCAR
   LVTOT  =      F    write LOCPOT, total local potential
   LVHAR  =      F    write LOCPOT, Hartree potential only
   LELF   =      F    write electronic localiz. function (ELF)
   LORBIT =      0    0 simple, 1 ext, 2 COOP (PROOUT)

 Dipole corrections
   LMONO  =      F    monopole corrections only (constant potential shift)
   LDIPOL =      F    correct potential (dipole corrections)
   IDIPOL =      0    1-x, 2-y, 3-z, 4-all directions
   EPSILON=  1.0000000 bulk dielectric constant

 Exchange correlation treatment:
   GGA     =    --    GGA type
   VOSKOWN=      0    Vosko Wilk Nusair interpolation
   LHFCALC =     F    Hartree Fock is set to
   LHFONE  =     F    Hartree Fock one center treatment
   AEXX    =    0.0000 exact exchange contribution

 Linear response parameters
   LEPSILON=     F    determine dielectric tensor
   LRPA    =     F    only Hartree local field effects (RPA)
   LNABLA  =     F    use nabla operator in PAW spheres
   LVEL    =     F    velocity operator in full k-point grid
   LINTERFAST=   F  fast interpolation
   KINTER  =     0    interpolate to denser k-point grid
   CSHIFT  =0.1000    complex shift for real part using Kramers Kronig
   OMEGAMAX=  -1.0    maximum frequency
   DEG_THRESHOLD= 0.2000000E-02 threshold for treating states as degnerate
   RTIME   =    0.100 relaxation time in fs

 Orbital magnetization related:
   ORBITALMAG=     F  switch on orbital magnetization
   LCHIMAG   =     F  perturbation theory with respect to B field
   DQ        =  0.001000  dq finite difference perturbation B field

 conjugate gradient relaxation of ions
 charge density and potential will be updated during run
 spin polarized calculation
 Variant of blocked Davidson
 Davidson routine will perform the subspace rotation
 perform sub-space diagonalisation
    after iterative eigenvector-optimisation
 modified Broyden-mixing scheme, WC =      100.0
 initial mixing is a Kerker type mixing with AMIX =  0.4000 and BMIX =      1.0000
 Hartree-type preconditioning will be used
 using additional bands            8
 reciprocal scheme for non local part
 use partial core corrections
 calculate Harris-corrections to forces
   (improved forces if not selfconsistent)
 use gradient corrections
 use of overlap-Matrix (Vanderbilt PP)
 Methfessel and Paxton  Order N= 1 SIGMA  =   0.20

  energy-cutoff  :      200.00
  volume of cell :       54.69
      direct lattice vectors                 reciprocal lattice vectors
     2.513052008  0.000000000  0.000000000     0.397922525  0.229740699  0.000000000
    -1.256526504  2.176367538  0.000000000     0.000000000  0.459481215  0.000000000
     0.000000000  0.000000000 10.000000000     0.000000000  0.000000000  0.100000000

  length of vectors
     2.513052008  2.513052828 10.000000000     0.459481365  0.459481215  0.100000000

 old parameters found on file WAVECAR:
  energy-cutoff  :      200.00
  volume of cell :       54.69
      direct lattice vectors                 reciprocal lattice vectors
     2.513052008  0.000000000  0.000000000     0.397922525  0.229740699  0.000000000
    -1.256526504  2.176367538  0.000000000     0.000000000  0.459481215  0.000000000
     0.000000000  0.000000000 10.000000000     0.000000000  0.000000000  0.100000000

  length of vectors

 k-points in units of 2pi/SCALE and weight: automatic mesh
   0.00000000  0.00000000  0.00000000       0.111
   0.13264084  0.07658023  0.00000000       0.222
   0.00000000  0.15316040  0.00000000       0.222
   0.13264084  0.22974064  0.00000000       0.222
  -0.13264084  0.07658017  0.00000000       0.222

 k-points in reciprocal lattice and weights: automatic mesh
   0.00000000  0.00000000  0.00000000       0.111
   0.33333333  0.00000000  0.00000000       0.222
   0.00000000  0.33333333  0.00000000       0.222
   0.33333333  0.33333333  0.00000000       0.222
  -0.33333333  0.33333333  0.00000000       0.222

 position of ions in fractional coordinates (direct lattice)
   0.33333300  0.66666700  0.10669490
   0.00000000  0.00000000  0.10669490

 position of ions in cartesian coordinates  (Angst):
  -0.00000159  1.45091242  1.06694900
   0.00000000  0.00000000  1.06694900

 k-point  1 :   0.0000 0.0000 0.0000  plane waves:     329
 k-point  2 :   0.3333 0.0000 0.0000  plane waves:     357
 k-point  3 :   0.0000 0.3333 0.0000  plane waves:     357
 k-point  4 :   0.3333 0.3333 0.0000  plane waves:     351
 k-point  5 :  -0.3333 0.3333 0.0000  plane waves:     357

 maximum and minimum number of plane-waves per node :        49       35

 maximum number of plane-waves:       357
 maximum index in each direction:
   IXMAX=    3   IYMAX=    2   IZMAX=   11
   IXMIN=   -3   IYMIN=   -3   IZMIN=  -11

 WARNING: aliasing errors must be expected set NGX to  14 to avoid them
 NGY is ok and might be reduce to  12
 NGZ is ok and might be reduce to  46
 aliasing errors are usually negligible using standard VASP settings
 and one can safely disregard these warnings

 parallel 3D FFT for wavefunctions:
    minimum data exchange during FFTs selected (reduces bandwidth)
 parallel 3D FFT for charge:
    minimum data exchange during FFTs selected (reduces bandwidth)

 Broyden mixing: mesh for mixing (old mesh)
   NGX =  5   NGY =  5   NGZ = 23
  (NGX  = 24   NGY  = 24   NGZ  = 96)
  gives a total of    575 points

 charge density for first step will be calculated from the start-wavefunctions

 Maximum index for augmentation-charges          142 (set IRDMAX)

 initial charge from wavefunction
 First call to EWALD:  gamma=   0.467
 Maximum number of real-space cells 4x 4x 1
 Maximum number of reciprocal cells 2x 2x 6

 FEWALD executed in parallel

----------------------------------------- Iteration    1(   1)  ---------------------------------------

 eigenvalue-minimisations  :   312
 total energy-change (2. order) :-0.1369876E+02  (-0.1844053E+02)
 number of electron       7.9999988 magnetization       0.0000008
 augmentation part        0.1260597 magnetization       0.0000003

 Broyden mixing:
  rms(total) = 0.83420E+00    rms(broyden)= 0.83105E+00
  rms(prec ) = 0.87761E+00
  weight for this iteration     100.00

 Free energy of the ion-electron system (eV)
  alpha Z        PSCENC =         6.50623564
  Ewald energy   TEWEN  =       339.28568868
  -1/2 Hartree   DENC   =      -644.51544252
  -exchange  EXHF       =         0.00000000
  -V(xc)+E(xc)   XCENC  =        28.36608346
  PAW double counting   =      1873.81286260    -1874.34684202
  entropy T*S    EENTRO =         0.00257685
  eigenvalues    EBANDS =       -73.94367179
  atomic energy  EATOM  =       331.13374781
  free energy    TOTEN  =       -13.69876128 eV

  energy without entropy =      -13.70133813  energy(sigma->0) =      -13.69962023

[...]

 eigenvalues of (default mixing * dielectric matrix)
  average eigenvalue GAMMA=   1.5045
  1.5045

[...]

 eigenvalue-minimisations  :   280
 total energy-change (2. order) : 0.1331912E-02  (-0.1885592E-03)
 number of electron       7.9999986 magnetization       0.0000001
 augmentation part        0.1480157 magnetization       0.0000001

[...]

 average (electrostatic) potential at core
  the test charge radii are     0.7672  0.7089
  (the norm of the test charge is              1.0000)
       1 -34.8682       2 -72.8683

 E-fermi :  -2.8660     XC(G=0):  -4.3287     alpha+bet : -3.6179

 spin component 1

 k-point   1 :       0.0000    0.0000    0.0000
  band No.  band energies     occupation
      1     -21.4528      1.00000
      2      -8.3421      1.00000
      3      -3.9018      1.00000
      4      -3.9017      1.00000
      5       1.2982     -0.00000
      6       3.1223      0.00000
      7       3.7744      0.00000
      8       8.3282      0.00000
      9       8.5900      0.00000
     10       8.5900      0.00000
     11       8.5904      0.00000
     12      11.4599      0.00000

[...]

 soft charge-density along one line, spin component           1
         0         1         2         3         4         5         6         7         8         9
 total charge-density along one line

[...]

------------------------ aborting loop because EDIFF is reached ----------------------------------------

  FORCE on cell =-STRESS in cart. coord.  units (eV):
  Direction    XX          YY          ZZ          XY          YZ          ZX
  Alpha Z     6.50624     6.50624     6.50624
  Ewald     610.77740   610.77707  -882.26880    -0.00023     0.00000     0.00000
  Hartree   611.90286   611.90282  -585.32778    -0.00002    -0.00000     0.00000
  E(xc)     -31.27063   -31.27063   -32.22891    -0.00000    -0.00000     0.00000
  Local   -1320.44846 -1320.44814  1354.84855     0.00022     0.00000    -0.00000
  n-local   -16.38493   -16.38492   -16.17733     0.00001     0.00000    -0.00000
  augment     1.12599     1.12600     1.21373     0.00001    -0.00000     0.00000
  Kinetic   126.20685   126.20686   141.70336     0.00004    -0.00000     0.00000
  Fock        0.00000     0.00000     0.00000     0.00000     0.00000     0.00000
  Total     -11.58469   -11.58471   -11.73095     0.00002    -0.00000     0.00000
  in kB    -339.36035  -339.36106  -343.64488     0.00060    -0.00001     0.00001

 VOLUME and BASIS-vectors are now :
  energy-cutoff  :      200.00
  volume of cell :       54.69
      direct lattice vectors                 reciprocal lattice vectors
     2.513052008  0.000000000  0.000000000     0.397922525  0.229740699  0.000000000
    -1.256526504  2.176367538  0.000000000     0.000000000  0.459481215  0.000000000
     0.000000000  0.000000000 10.000000000     0.000000000  0.000000000  0.100000000

[...]

 FORCES acting on ions
    electron-ion (+dipol)            ewald-force                    non-local-force                 convergence-correction
   -.143E-03 0.171E-03 -.290E-05   0.152E-03 -.174E-03 0.154E-18   0.147E-04 -.149E-04 0.296E-03   0.968E-06 0.745E-07 0.938E-06
   0.123E-03 -.139E-03 -.657E-04   -.152E-03 0.174E-03 -.154E-18   -.522E-04 0.184E-04 0.169E-03   -.336E-05 0.382E-06 0.161E-05
   -.203E-04 0.312E-04 -.686E-04   0.228E-14 -.101E-14 0.000E+00   -.375E-04 0.348E-05 0.465E-03   -.240E-05 0.456E-06 0.255E-05

 POSITION                                       TOTAL-FORCE (eV/Angst)
     -0.00000      1.45091      1.06695         0.000055     -0.000036      0.000095
      0.00000      0.00000      1.06695        -0.000055      0.000036     -0.000095
    total drift:                               -0.000060      0.000035      0.000399

  FREE ENERGIE OF THE ION-ELECTRON SYSTEM (eV)
  free  energy   TOTEN  =       -16.82478856 eV

  energy  without entropy=      -16.82736540  energy(sigma->0) =      -16.82564751

[...]

 d Force = 0.1482397E-09[-0.986E-09, 0.128E-08]  d Energy =-0.1018634E-09 0.250E-09
 d Force = 0.9399831E-08[ 0.174E-07, 0.141E-08]  d Ewald  = 0.9399855E-08 0.000E+00

 Steepest descent step on ions:
 trial-energy change:    0.000000  1 .order   -0.000000   -0.000000    0.000000
  (g-gl).g = 0.128E-08      g.g   = 0.128E-08  gl.gl    = 0.000E+00
 g(Force)  = 0.128E-08   g(Stress)= 0.000E+00 ortho     = 0.000E+00
 gamma     =   0.00000
 trial     =   1.00000
 opt step  =   0.56532  (harmonic =   0.56532) maximal distance =0.00000259
 next E    =   -16.824789   (d E  =  -0.00000)

[...]

 d Force = 0.2127710E-09[-0.327E-11, 0.429E-09]  d Energy = 0.2683009E-09-0.555E-10
 d Force =-0.6049646E-08[-0.454E-08,-0.756E-08]  d Ewald  =-0.6049618E-08 0.000E+00

[...]

 d Force = 0.3306184E-10[-0.270E-09, 0.336E-09]  d Energy =-0.3203695E-09 0.353E-09
 d Force = 0.1178924E-07[ 0.151E-07, 0.846E-08]  d Ewald  = 0.1178921E-07 0.000E+00

 Conjugate gradient step on ions:
 trial-energy change:    0.000000  1 .order   -0.000000   -0.000000    0.000000
  (g-gl).g = 0.358E-09      g.g   = 0.366E-09  gl.gl    = 0.128E-08
 g(Force)  = 0.366E-09   g(Stress)= 0.000E+00 ortho     = 0.752E-11
 gamma     =   0.27912
 trial     =   0.91306
 opt step  =   0.50640  (harmonic =   0.50640) maximal distance =0.00000151
 next E    =   -16.824789   (d E  =  -0.00000)

 FEWALD executed in parallel

[...]

 eigenvalue-minimisations  :   144
 total energy-change (2. order) : 0.2072511E-09  (-0.6519603E-09)
 number of electron       7.9999986 magnetization       0.0000000
 augmentation part        0.1485265 magnetization       0.0000000

[...]

 Broyden mixing:
  rms(total) = 0.99664E-07    rms(broyden)= 0.99309E-07
  rms(prec ) = 0.13311E-06
  weight for this iteration     100.00

 eigenvalues of (default mixing * dielectric matrix)
  average eigenvalue GAMMA=   1.4084
  2.4096  0.9765  0.8390

[...]

----------------------------------------- Iteration    5(   5)  ---------------------------------------

 eigenvalue-minimisations  :   120
 total energy-change (2. order) :-0.5798029E-11  (-0.1672736E-13)
 number of electron       7.9999986 magnetization       0.0000000
 augmentation part        0.1485265 magnetization      -0.0000000

 Free energy of the ion-electron system (eV)
  alpha Z        PSCENC =         6.50623564
  Ewald energy   TEWEN  =       339.28568868
  -1/2 Hartree   DENC   =      -638.47800026
  -exchange  EXHF       =         0.00000000
  -V(xc)+E(xc)   XCENC  =        28.07709401
  PAW double counting   =      1281.44207725    -1281.96438854
  entropy T*S    EENTRO =         0.00257685
  eigenvalues    EBANDS =       -82.82981998
  atomic energy  EATOM  =       331.13374781
  free energy    TOTEN  =       -16.82478856 eV

  energy without entropy =      -16.82736540  energy(sigma->0) =      -16.82564751

 average (electrostatic) potential at core
  the test charge radii are     0.7672  0.7089
  (the norm of the test charge is              1.0000)
       1 -34.8681       2 -72.8683

 E-fermi :  -2.8660     XC(G=0):  -4.3287     alpha+bet : -3.6179

[...]

 spin component 2

[...]

 k-point   5 :      -0.3333    0.3333    0.0000
  band No.  band energies     occupation
      1     -19.5823      1.00000
      2     -10.1657      1.00000
      3      -6.3932      1.00000
      4      -5.6514      1.00000
      5       4.0873      0.00000
      6       4.6769      0.00000
      7       6.5906      0.00000
      8       6.9420      0.00000
      9       8.0418      0.00000
     10      12.2507      0.00000
     11      13.0682      0.00000
     12      14.9294      0.00000

[...]

 soft charge-density along one line, spin component           2
         0         1         2         3         4         5         6         7         8         9
 total charge-density along one line

------------------------ aborting loop because EDIFF is reached ----------------------------------------

  FORCE on cell =-STRESS in cart. coord.  units (eV):
  Direction    XX          YY          ZZ          XY          YZ          ZX
  Alpha Z     6.50624     6.50624     6.50624
  Ewald     610.77719   610.77728  -882.26880     0.00010    -0.00000    -0.00000
  Hartree   611.90291   611.90291  -585.32782     0.00002    -0.00000     0.00000
  E(xc)     -31.27063   -31.27063   -32.22890    -0.00000    -0.00000     0.00000
  Local   -1320.44833 -1320.44841  1354.84860    -0.00010     0.00000    -0.00000
  n-local   -16.38495   -16.38493   -16.17734     0.00002     0.00000    -0.00000
  augment     1.12599     1.12600     1.21374     0.00001    -0.00000     0.00000
  Kinetic   126.20691   126.20686   141.70340    -0.00001    -0.00000     0.00000
  Fock        0.00000     0.00000     0.00000     0.00000     0.00000     0.00000
  Total     -11.58467   -11.58469   -11.73090     0.00003    -0.00000     0.00000
  in kB    -339.36002  -339.36035  -343.64352     0.00086    -0.00001     0.00001

 VOLUME and BASIS-vectors are now :
  energy-cutoff  :      200.00
  volume of cell :       54.69
      direct lattice vectors                 reciprocal lattice vectors
     2.513052008  0.000000000  0.000000000     0.397922525  0.229740699  0.000000000
    -1.256526504  2.176367538  0.000000000     0.000000000  0.459481215  0.000000000
     0.000000000  0.000000000 10.000000000     0.000000000  0.000000000  0.100000000

  length of vectors
     2.513052008  2.513052828 10.000000000     0.459481365  0.459481215  0.100000000

 FORCES acting on ions
    electron-ion (+dipol)            ewald-force                    non-local-force                 convergence-correction
   0.113E-03 0.128E-04 -.228E-02   -.116E-03 -.774E-05 0.218E-02   -.280E-04 0.121E-04 0.300E-03   0.915E-07 -.644E-07 -.102E-05
   -.994E-04 -.612E-05 0.175E-02   0.116E-03 0.774E-05 -.218E-02   -.483E-04 0.170E-04 0.631E-03   -.639E-06 0.445E-06 -.172E-05
   0.139E-04 0.669E-05 -.529E-03   0.228E-14 -.101E-14 0.000E+00   -.763E-04 0.291E-04 0.930E-03   -.548E-06 0.381E-06 -.274E-05

 POSITION                                       TOTAL-FORCE (eV/Angst)
     -0.00000      1.45091      1.06695         0.000000     -0.000001      0.000001
     -0.00000      0.00000      1.06694        -0.000000      0.000001     -0.000001
    total drift:                               -0.000063      0.000036      0.000399

  FREE ENERGIE OF THE ION-ELECTRON SYSTEM (eV)
  free  energy   TOTEN  =       -16.82478856 eV

  energy  without entropy=      -16.82736540  energy(sigma->0) =      -16.82564751

 d Force = 0.5976906E-10[-0.549E-12, 0.120E-09]  d Energy = 0.4923777E-09-0.433E-09
 d Force =-0.6073715E-08[-0.541E-08,-0.673E-08]  d Ewald  =-0.6073719E-08 0.000E+00

 reached required accuracy - stopping structural energy minimisation
 writing wavefunctions